NAME : portcgen-16-26
COMMENT : portcgen N=16, seed=26
TYPE : TSP
DIMENSION : 16
EDGE_WEIGHT_TYPE : EUC_2D
NODE_COORD_SECTION
1 -207474 -67600
2 179947 -272771
3 -10204 -99601
4 -265146 413141
5 -213008 103106
6 209750 8133
7 -110175 25825
8 -412796 -124152
9 77794 272660
10 -58330 -422575
11 -339205 380855
12 -182449 -79060
13 -137593 271547
14 -193784 -329486
15 333019 -658677
16 49801 -249660
